%chk=carbon-3.chk
# pbepbe/3-21g/auto

carbon-3.cdx

0 1
 C                  8.80586533    0.92856472   -0.00000000
 C                 10.05689963    1.64909127   -0.00000000
 C                 11.30646403    0.92601856   -0.00000000
 C                 12.55759834    1.64654501   -0.00000000
 C                 13.80716273    0.92347230   -0.00000000
 C                 11.31087415    5.25721631   -0.00000000
 C                 11.30940415    3.81351707   -0.00000000
 C                 10.05836974    3.09289052   -0.00000000
 C                 12.55906844    3.09034426   -0.00000000
 C                 -3.68997796    8.15999200    0.00000000
 C                 -4.93817225   10.32686406    0.00000000
 C                 -3.68850786    9.60379125    0.00000000
 C                 -2.43747355   10.32431779    0.00000000
 C                 -6.18626645   12.49383602    0.00000000
 C                 -4.93670215   11.77066331    0.00000000
 C                 -2.43600345   11.76811705    0.00000000
 C                 -1.18496904   12.48874359    0.00000000
 C                 -3.68556774   12.49128975    0.00000000
 C                  7.42941365    7.94966989   -0.00000000
 C                  6.70878710    9.20070430   -0.00000000
 C                  7.67597905   10.27262004   -0.00000000
 C                  8.99428046    9.68407742   -0.00000000
 C                  8.84191859    8.24843181   -0.00000000
 C                  6.70624094    6.70010559   -0.00000000
 C                  5.26254169    6.70157560   -0.00000000
 C                  4.54191514    7.95261000   -0.00000000
 C                  5.26508785    9.20217431   -0.00000000
 C                  7.42686738    5.44897119   -0.00000000
 C                  6.70369468    4.19940689   -0.00000000
 C                  5.25999542    4.20087690   -0.00000000
 C                  4.53936888    5.45191130   -0.00000000
 C                  4.53682272    2.95131260   -0.00000000
 C                  3.09312347    2.95278261   -0.00000000
 C                  2.37249692    4.20381700   -0.00000000
 C                  3.09566963    5.45338131   -0.00000000
 C                  0.92869767    4.20528712   -0.00000000
 C                  0.20817113    5.45632142   -0.00000000
 C                  0.93124394    6.70598582   -0.00000000
 C                  2.37504318    6.70451572   -0.00000000
 C                  0.21071739    7.95702012   -0.00000000
 C                  0.93379010    9.20658452   -0.00000000
 C                  2.37758934    9.20511442   -0.00000000
 C                  3.09821589    7.95408001   -0.00000000
 C                  3.10076206   10.45467872   -0.00000000
 C                  4.54446130   10.45320871   -0.00000000
 C                  2.65596040   11.82823233   -0.00000000
 C                  3.82482386   12.67564261   -0.00000000
 C                  4.99205920   11.82585367   -0.00000000
 C                 -1.20117621    8.25865790    0.00000000
 C                 -1.35071417    9.69461090    0.00000000
 C                 -0.03111695   10.28046757   -0.00000000
 C                 -0.03839428    3.13337127    0.00000000
 C                 -1.35679569    3.72191400    0.00000000
 C                 -1.20433371    5.15765950    0.00000000
 C                  4.98162437    1.57775898   -0.00000000
 C                  3.81266091    0.73034880   -0.00000000
 C                  2.64552558    1.58013764   -0.00000000
 C                  8.83876108    5.14743342   -0.00000000
 C                  8.98819894    3.71138051   -0.00000000
 C                  7.66870172    3.12552374   -0.00000000
 C                  9.95618430    7.33029677   -0.00000000
 C                  9.93311441    5.88671951   -0.00000000
 C                  7.43075170    1.70156530   -0.00000000
 C                  6.17981740    0.98103864   -0.00000000
 C                  1.29330974    1.07421424   -0.00000000
 C                  0.05466437    1.81597584   -0.00000000
 C                 -2.31859953    6.07569455    0.00000000
 C                 -2.29552964    7.51927180    0.00000000
 C                  0.20683318   11.70452602   -0.00000000
 C                  1.45776748   12.42505267   -0.00000000
 C                  6.34417503   12.33177718   -0.00000000
 C                  7.58282040   11.59001558   -0.00000000
 Tv                15.10722600    0.00000000    0.00000000
 Tv                -7.55361300   13.08324150    0.00000000

