%chk=mol-1.chk
# pbepbe/3-21g/auto

mol-1.mol

0 1
 C            2.02625406    1.42708680    0.00000000
 C            2.02622503    2.87082836    0.00000000
 C            3.39930368    0.98087654    0.00000000
 C            4.24794073    2.14894965    0.00000000
 C            3.39934363    3.31693254    0.00000000
 C            5.69168229    2.14897868    0.00000000
 C            6.54031599    0.98085919    0.00000000
 C            7.91339798    1.42709997    0.00000000
 C            7.91336895    2.87084154    0.00000000
 C            6.54026933    3.31696519    0.00000000
 C            9.16376311    0.70519590    0.00000000
 C           10.41401260    1.42708338    0.00000000
 C           10.41407017    2.87077494    0.00000000
 C            9.16370505    3.59267902    0.00000000
 C           11.66437772    0.70517930    0.00000000
 C           11.66431966    3.59266243    0.00000000
 C           11.66437723    5.03635399    0.00000000
 C           10.41401211    5.75825807    0.00000000
 C            9.16367601    5.03642058    0.00000000
 C           12.91468478    2.87075835    0.00000000
 C           14.16502088    3.59259583    0.00000000
 C           14.16504185    5.03642400    0.00000000
 C           12.91467672    5.75832808    0.00000000
 C           12.91471381    1.42701679    0.00000000
 C            6.22014872   10.13486256    0.00000000
 C            7.47048482   10.85670005    0.00000000
 C            6.52036126    8.72265293    0.00000000
 C            7.95616167    8.57172836    0.00000000
 C            8.54343274    9.89070232    0.00000000
 C           10.11393617    7.17050431    0.00000000
 C            8.67799916    7.32139227    0.00000000
 C            8.09077809    6.00250491    0.00000000
 C           15.23792893    6.00250998    0.00000000
 C           14.65071556    7.32142106    0.00000000
 C           13.21489740    7.17051658    0.00000000
 C           15.37256964    8.57169958    0.00000000
 C           16.80838780    8.72260405    0.00000000
 C           17.10860847   10.13479255    0.00000000
 C           15.85824335   10.85669663    0.00000000
 C           14.78535627    9.89061065    0.00000000
 C           18.35899457   10.85671664    0.00000000
 C            3.97615810    4.50499592    0.00000000
 C            9.90272059    9.96085310    0.00000000
 C           10.62452466   11.21104502    0.00000000
 C            5.64659286    7.68225039    0.00000000
 C            6.66657239    5.76591426    0.00000000
 C            5.94481831    4.51580894    0.00000000
 C           16.55525340    5.90797914    0.00000000
 C           12.29794449    8.28570426    0.00000000
 C           10.85434254    8.26411715    0.00000000
 C           12.65800273   11.38812471    0.00000000
 C           13.36110050   10.12713061    0.00000000
 C           17.59205926    7.70376603    0.00000000
 C            0.69258110    0.65707613    0.00000000
 Tv         13.38912436     0.00000000    0.00000000
 Tv          6.69458782     11.59527890   0.00000000
       
