KPOINTS generated by PyProcar
40 ! Grid points
Line_mode
reciprocal
0.0000000000 0.0000000000 0.0000000000 ! \Gamma
0.5000000000 0.0000000000 0.0000000000 ! M

0.5000000000 0.0000000000 0.0000000000 ! M
0.3333333333 0.3333333333 0.0000000000 ! K

0.3333333333 0.3333333333 0.0000000000 ! K
0.0000000000 0.0000000000 0.0000000000 ! \Gamma

