%chk=carbon-2.chk
# pbepbe/3-21g/auto

carbon-2.cdx

0 1
 C                  6.23341070    0.74557708   -0.00000000
 C                  7.48575033    1.46393295   -0.00000000
 C                  8.73410068    0.73849433   -0.00000000
 C                  7.48983932    2.90762716   -0.00000000
 C                 -4.99286469   10.16181107    0.00000000
 C                  4.86969818    7.76916769   -0.00000000
 C                  4.15134259    9.02160732   -0.00000000
 C                  5.12047749   10.09176672   -0.00000000
 C                  6.43770907    9.50083355   -0.00000000
 C                  6.28274277    8.06536671   -0.00000000
 C                  4.14425984    6.52091735   -0.00000000
 C                  2.70056564    6.52500634   -0.00000000
 C                  1.98220976    7.77734597   -0.00000000
 C                  2.70764837    9.02569632   -0.00000000
 C                  4.86261572    5.26857772   -0.00000000
 C                  4.13717738    4.02032738   -0.00000000
 C                  2.69348318    4.02441638   -0.00000000
 C                  1.97512730    5.27675601   -0.00000000
 C                  1.96804484    2.77616604   -0.00000000
 C                  0.52435034    2.78015503   -0.00000000
 C                 -0.19400525    4.03259466    0.00000000
 C                  0.53143309    5.28084500   -0.00000000
 C                 -1.63779945    4.03668394    0.00000000
 C                 -2.35605533    5.28902328    0.00000000
 C                 -1.63071699    6.53727391    0.00000000
 C                 -0.18692279    6.53318463    0.00000000
 C                 -2.34897287    7.78961325    0.00000000
 C                 -1.62363425    9.03796387    0.00000000
 C                 -0.17984004    9.03387460    0.00000000
 C                  0.53851555    7.78143497   -0.00000000
 C                  0.54559829   10.28212494   -0.00000000
 C                  1.98929251   10.27803594   -0.00000000
 C                 -3.76031695    8.09381182    0.00000000
 C                 -3.90714944    9.53013346    0.00000000
 C                 -2.58659159   10.11359558    0.00000000
 C                  2.41035402    1.40180776   -0.00000000
 C                  1.23985493    0.55641959   -0.00000000
 C                  0.07426338    1.40842431   -0.00000000
 C                  6.27395980    4.96437915   -0.00000000
 C                  6.42079256    3.52815751   -0.00000000
 C                  5.10023473    2.94469540   -0.00000000
 C                  7.39534136    7.14531180   -0.00000000
 C                  7.36965273    5.70177877   -0.00000000
 C                  4.85970162    1.52107095   -0.00000000
 C                  3.60746228    0.80281479   -0.00000000
 C                  9.88920329    3.03273194   -0.00000000
 C                  8.57197171    3.62366511   -0.00000000
 C                  8.72693800    5.05913195   -0.00000000
 C                 11.21716962    0.97116245   -0.00000000
 C                  9.97997191    1.71516956   -0.00000000
 Tv                12.52060300    0.00000000    0.00000000
 Tv                -6.26030150   10.84316027    0.00000000

